1 47
24 5
24 43
26 15
19 38
48 2
10 25
43 44
11 11
11 47
37 40
2 19
44 13
37 13
40 34
42 40
16 20
27 40
4 42
45 39
33 35
2 20
21 32
16 40
31 6
36 11
32 43
38 35
23 4
41 19
41 47
13 9
11 44
23 33
25 40
28 20
17 36
24 32
10 37
24 40
49 29
41 44
44 8
7 14
8 27
11 4
12 35
27 39
14 26
29 26
